NAME 
ROWS
 N  OBJ
 L  R0      
 L  R1      
 L  R2      
 E  R3      
 E  R4      
 E  R5      
 E  R6      
 E  R7      
 E  R8      
 E  R9      
 E  R10     
 E  R11     
 E  R12     
 E  R13     
 E  R14     
 E  R15     
 E  R16     
 E  R17     
 E  R18     
 E  R19     
 E  R20     
 E  R21     
 E  R22     
 E  R23     
 E  R24     
 E  R25     
 E  R26     
 E  R27     
COLUMNS
    MARKER    'MARKER'                 'INTORG'
    I0(8)     OBJ       43
    I0(8)     R0        103
    I0(8)     R1        150
    I0(8)     R2        -151
    I0(8)     R5        19
    I0(8)     R8        19
    I0(8)     R11       3
    I0(8)     R13       2
    I0(8)     R27       1
    I1(14)    OBJ       -148
    I1(14)    R0        -19
    I1(14)    R1        134
    I1(14)    R2        -15
    I1(14)    R4        16
    I1(14)    R5        -1
    I1(14)    R6        15
    I1(14)    R8        16
    I1(14)    R9        -1
    I1(14)    R10       7
    I1(14)    R11       19
    I1(14)    R12       16
    I1(14)    R13       9
    I1(14)    R14       17
    I1(14)    R27       1
    I2(10)    OBJ       -40
    I2(10)    R0        171
    I2(10)    R1        185
    I2(10)    R2        -146
    I2(10)    R3        12
    I2(10)    R4        18
    I2(10)    R7        19
    I2(10)    R8        17
    I2(10)    R12       9
    I2(10)    R13       -1
    I2(10)    R27       1
    I3(12)    OBJ       152
    I3(12)    R0        -63
    I3(12)    R1        177
    I3(12)    R2        -19
    I3(12)    R3        10
    I3(12)    R4        6
    I3(12)    R5        2
    I3(12)    R7        9
    I3(12)    R8        17
    I3(12)    R9        18
    I3(12)    R10       11
    I3(12)    R13       19
    I3(12)    R27       1
    I4(12)    OBJ       -135
    I4(12)    R0        160
    I4(12)    R1        -199
    I4(12)    R2        -5
    I4(12)    R3        2
    I4(12)    R4        18
    I4(12)    R7        5
    I4(12)    R8        14
    I4(12)    R9        19
    I4(12)    R10       -1
    I4(12)    R12       2
    I4(12)    R14       7
    I4(12)    R27       1
    I5(14)    OBJ       -142
    I5(14)    R0        20
    I5(14)    R1        168
    I5(14)    R2        -180
    I5(14)    R3        19
    I5(14)    R4        16
    I5(14)    R5        15
    I5(14)    R7        1
    I5(14)    R8        2
    I5(14)    R10       8
    I5(14)    R11       8
    I5(14)    R12       16
    I5(14)    R13       12
    I5(14)    R14       16
    I5(14)    R27       1
    I6(12)    OBJ       -157
    I6(12)    R0        -9
    I6(12)    R1        154
    I6(12)    R2        -36
    I6(12)    R3        3
    I6(12)    R4        13
    I6(12)    R5        12
    I6(12)    R6        6
    I6(12)    R7        6
    I6(12)    R9        9
    I6(12)    R10       8
    I6(12)    R14       18
    I6(12)    R27       1
    I7(14)    OBJ       -108
    I7(14)    R0        104
    I7(14)    R1        119
    I7(14)    R2        -80
    I7(14)    R5        10
    I7(14)    R6        17
    I7(14)    R7        6
    I7(14)    R8        -1
    I7(14)    R9        11
    I7(14)    R10       9
    I7(14)    R11       11
    I7(14)    R12       4
    I7(14)    R13       8
    I7(14)    R14       -1
    I7(14)    R27       1
    I8(13)    OBJ       -149
    I8(13)    R0        -15
    I8(13)    R1        -76
    I8(13)    R2        -96
    I8(13)    R3        9
    I8(13)    R5        -1
    I8(13)    R7        13
    I8(13)    R8        12
    I8(13)    R9        2
    I8(13)    R11       13
    I8(13)    R12       8
    I8(13)    R13       3
    I8(13)    R14       -1
    I8(13)    R27       1
    I9(12)    OBJ       -183
    I9(12)    R0        95
    I9(12)    R1        -36
    I9(12)    R2        119
    I9(12)    R3        17
    I9(12)    R4        11
    I9(12)    R7        -1
    I9(12)    R8        10
    I9(12)    R9        19
    I9(12)    R11       19
    I9(12)    R12       15
    I9(12)    R14       -1
    I9(12)    R27       1
    I10(13)   OBJ       90
    I10(13)   R0        -53
    I10(13)   R1        112
    I10(13)   R2        -70
    I10(13)   R3        9
    I10(13)   R4        17
    I10(13)   R5        1
    I10(13)   R8        4
    I10(13)   R9        3
    I10(13)   R10       2
    I10(13)   R12       12
    I10(13)   R13       6
    I10(13)   R14       1
    I10(13)   R27       1
    I11(12)   OBJ       81
    I11(12)   R0        12
    I11(12)   R1        -154
    I11(12)   R2        77
    I11(12)   R3        6
    I11(12)   R4        8
    I11(12)   R5        -1
    I11(12)   R7        12
    I11(12)   R8        11
    I11(12)   R10       15
    I11(12)   R11       16
    I11(12)   R14       10
    I11(12)   R27       1
    MARKER    'MARKER'                 'INTEND'
    C12(19)   OBJ       5
    C12(19)   R0        5
    C12(19)   R1        -10
    C12(19)   R2        -10
    C12(19)   R3        11
    C12(19)   R4        4
    C12(19)   R6        15
    C12(19)   R7        12
    C12(19)   R9        5
    C12(19)   R10       13
    C12(19)   R11       -1
    C12(19)   R12       4
    C12(19)   R13       13
    C12(19)   R15       -1
    C12(19)   R16       18
    C12(19)   R18       1
    C12(19)   R19       12
    C12(19)   R20       12
    C12(19)   R23       12
    C12(19)   R25       8
    C13(20)   OBJ       9
    C13(20)   R0        -4
    C13(20)   R1        -9
    C13(20)   R2        -3
    C13(20)   R3        18
    C13(20)   R4        5
    C13(20)   R5        7
    C13(20)   R6        14
    C13(20)   R10       12
    C13(20)   R11       16
    C13(20)   R12       5
    C13(20)   R13       3
    C13(20)   R14       6
    C13(20)   R15       6
    C13(20)   R16       2
    C13(20)   R17       5
    C13(20)   R19       14
    C13(20)   R20       6
    C13(20)   R21       1
    C13(20)   R22       18
    C13(20)   R25       17
    C14(16)   OBJ       4
    C14(16)   R1        4
    C14(16)   R2        -2
    C14(16)   R9        16
    C14(16)   R10       1
    C14(16)   R12       14
    C14(16)   R13       15
    C14(16)   R14       3
    C14(16)   R15       12
    C14(16)   R16       16
    C14(16)   R17       19
    C14(16)   R18       7
    C14(16)   R21       2
    C14(16)   R22       19
    C14(16)   R23       -1
    C14(16)   R25       4
    C14(16)   R26       6
    C15(19)   R0        7
    C15(19)   R1        7
    C15(19)   R2        1
    C15(19)   R6        11
    C15(19)   R7        7
    C15(19)   R8        1
    C15(19)   R9        14
    C15(19)   R11       1
    C15(19)   R12       13
    C15(19)   R13       18
    C15(19)   R14       19
    C15(19)   R15       11
    C15(19)   R17       16
    C15(19)   R18       1
    C15(19)   R20       4
    C15(19)   R21       6
    C15(19)   R22       16
    C15(19)   R23       11
    C15(19)   R26       -1
    C16(20)   OBJ       7
    C16(20)   R0        -3
    C16(20)   R1        2
    C16(20)   R2        -3
    C16(20)   R4        18
    C16(20)   R7        13
    C16(20)   R8        -1
    C16(20)   R11       11
    C16(20)   R12       8
    C16(20)   R13       4
    C16(20)   R14       11
    C16(20)   R15       13
    C16(20)   R16       18
    C16(20)   R17       18
    C16(20)   R18       18
    C16(20)   R19       8
    C16(20)   R20       19
    C16(20)   R21       4
    C16(20)   R22       17
    C16(20)   R23       13
    C16(20)   R26       11
    C17(18)   OBJ       -8
    C17(18)   R0        5
    C17(18)   R1        4
    C17(18)   R2        -4
    C17(18)   R4        12
    C17(18)   R6        4
    C17(18)   R8        6
    C17(18)   R9        12
    C17(18)   R11       2
    C17(18)   R17       3
    C17(18)   R18       13
    C17(18)   R19       13
    C17(18)   R20       4
    C17(18)   R21       12
    C17(18)   R22       13
    C17(18)   R23       18
    C17(18)   R24       13
    C17(18)   R25       8
    C17(18)   R26       15
    C18(16)   OBJ       6
    C18(16)   R0        7
    C18(16)   R1        7
    C18(16)   R2        2
    C18(16)   R3        2
    C18(16)   R4        9
    C18(16)   R5        7
    C18(16)   R7        3
    C18(16)   R9        8
    C18(16)   R10       11
    C18(16)   R11       -1
    C18(16)   R15       16
    C18(16)   R17       10
    C18(16)   R18       17
    C18(16)   R19       14
    C18(16)   R20       3
    C18(16)   R21       15
    C19(18)   OBJ       1
    C19(18)   R0        -3
    C19(18)   R1        -3
    C19(18)   R2        6
    C19(18)   R3        18
    C19(18)   R4        -1
    C19(18)   R6        14
    C19(18)   R9        8
    C19(18)   R10       15
    C19(18)   R11       17
    C19(18)   R13       19
    C19(18)   R14       12
    C19(18)   R18       3
    C19(18)   R19       16
    C19(18)   R20       10
    C19(18)   R21       15
    C19(18)   R22       15
    C19(18)   R25       16
    C19(18)   R26       12
    C20(19)   OBJ       4
    C20(19)   R0        4
    C20(19)   R1        -3
    C20(19)   R2        9
    C20(19)   R3        -1
    C20(19)   R4        13
    C20(19)   R5        16
    C20(19)   R7        12
    C20(19)   R9        17
    C20(19)   R10       11
    C20(19)   R12       1
    C20(19)   R13       12
    C20(19)   R14       15
    C20(19)   R15       10
    C20(19)   R19       17
    C20(19)   R20       14
    C20(19)   R21       2
    C20(19)   R22       19
    C20(19)   R23       17
    C20(19)   R24       16
    C21(19)   R0        9
    C21(19)   R1        -6
    C21(19)   R2        3
    C21(19)   R3        5
    C21(19)   R4        19
    C21(19)   R6        10
    C21(19)   R7        2
    C21(19)   R9        2
    C21(19)   R10       10
    C21(19)   R12       11
    C21(19)   R13       11
    C21(19)   R15       5
    C21(19)   R16       1
    C21(19)   R19       15
    C21(19)   R20       5
    C21(19)   R21       9
    C21(19)   R23       8
    C21(19)   R25       14
    C21(19)   R26       5
    C22(22)   R0        3
    C22(22)   R1        2
    C22(22)   R2        9
    C22(22)   R3        7
    C22(22)   R4        -1
    C22(22)   R6        4
    C22(22)   R7        12
    C22(22)   R8        17
    C22(22)   R9        11
    C22(22)   R10       6
    C22(22)   R11       3
    C22(22)   R12       4
    C22(22)   R13       6
    C22(22)   R15       6
    C22(22)   R16       7
    C22(22)   R17       11
    C22(22)   R18       18
    C22(22)   R20       12
    C22(22)   R22       -1
    C22(22)   R23       6
    C22(22)   R25       16
    C22(22)   R26       13
    C23(21)   OBJ       -3
    C23(21)   R0        -2
    C23(21)   R1        -6
    C23(21)   R2        7
    C23(21)   R3        5
    C23(21)   R4        2
    C23(21)   R5        1
    C23(21)   R6        7
    C23(21)   R7        6
    C23(21)   R8        13
    C23(21)   R9        -1
    C23(21)   R12       2
    C23(21)   R13       15
    C23(21)   R15       4
    C23(21)   R16       6
    C23(21)   R18       3
    C23(21)   R19       -1
    C23(21)   R20       14
    C23(21)   R21       5
    C23(21)   R23       11
    C23(21)   R25       17
    C23(21)   R26       6
    C24(12)   OBJ       -10
    C24(12)   R1        -10
    C24(12)   R2        -3
    C24(12)   R5        1
    C24(12)   R7        9
    C24(12)   R10       4
    C24(12)   R12       15
    C24(12)   R15       5
    C24(12)   R17       5
    C24(12)   R19       15
    C24(12)   R22       3
    C24(12)   R23       4
    C24(12)   R26       11
    C25(1)    R3        1
    C26(1)    R4        1
    C27(1)    R5        1
    C28(1)    R6        1
    C29(1)    R7        1
    C30(1)    R8        1
    C31(1)    R9        1
    C32(1)    R10       1
    C33(1)    R11       1
    C34(1)    R12       1
    C35(1)    R13       1
    C36(1)    R14       1
    C37(1)    R15       1
    C38(1)    R16       1
    C39(1)    R17       1
    C40(1)    R18       1
    C41(1)    R19       1
    C42(1)    R20       1
    C43(1)    R21       1
    C44(1)    R22       1
    C45(1)    R23       1
    C46(1)    R24       1
    C47(1)    R25       1
    C48(1)    R26       1
    C49(1)    R27       1
RHS
    RHS1      R0        9.4055555555555529e+01
    RHS1      R1        1.7655555555555554e+02
    RHS1      R2        -200.611111111111
    RHS1      R3        99
    RHS1      R4        53
    RHS1      R5        82
    RHS1      R6        76
    RHS1      R7        53
    RHS1      R8        70
    RHS1      R9        68
    RHS1      R10       55
    RHS1      R11       50
    RHS1      R12       89
    RHS1      R13       79
    RHS1      R14       84
    RHS1      R15       89
    RHS1      R16       55
    RHS1      R17       80
    RHS1      R18       93
    RHS1      R19       83
    RHS1      R20       93
    RHS1      R21       87
    RHS1      R22       85
    RHS1      R23       92
    RHS1      R24       83
    RHS1      R25       92
    RHS1      R26       66
    RHS1      R27       4
BOUNDS
 UP BND1      I0(8)     1
 UP BND1      I1(14)    1
 UP BND1      I2(10)    1
 UP BND1      I3(12)    1
 UP BND1      I4(12)    1
 UP BND1      I5(14)    1
 UP BND1      I6(12)    1
 UP BND1      I7(14)    1
 UP BND1      I8(13)    1
 UP BND1      I9(12)    1
 UP BND1      I10(13)   1
 UP BND1      I11(12)   1
ENDATA
